;symbolic execution tree
(push)
(assert (le x11 weka.core.Instance))
(check-sat)
(push)
(assert (le x3 java.lang.String))
(check-sat)
(push)
(assert (le x3 java.lang.String))
(check-sat)
(push)
(assert (le x2 java.lang.StringBuilder))
(check-sat)
(pop)
(push)
(assert (not (le x2 java.lang.StringBuilder)))
(check-sat)
(pop)
(pop)
(push)
(assert (not (le x3 java.lang.String)))
(check-sat)
(pop)
(pop)
(push)
(assert (not (le x3 java.lang.String)))
(check-sat)
(push)
(assert (le x11 weka.core.Instance))
(check-sat)
(pop)
(push)
(assert (not (le x11 weka.core.Instance)))
(check-sat)
(pop)
(push)
(assert (le x0 java.lang.String))
(check-sat)
(pop)
(push)
(assert (not (le x0 java.lang.String)))
(check-sat)
(push)
(assert (le x9 weka.core.Instance))
(check-sat)
(pop)
(push)
(assert (not (le x9 weka.core.Instance)))
(check-sat)
(pop)
(pop)
(pop)
(push)
(assert (le x5 java.lang.Boolean))
(check-sat)
(push)
(assert (le x9 weka.core.AttributeLocator))
(check-sat)
(pop)
(push)
(assert (not (le x9 weka.core.AttributeLocator)))
(check-sat)
(pop)
(push)
(assert (le x4 weka.core.Instances))
(check-sat)
(pop)
(push)
(assert (not (le x4 weka.core.Instances)))
(check-sat)
(push)
(assert (le x4 weka.core.Instances))
(check-sat)
(pop)
(push)
(assert (not (le x4 weka.core.Instances)))
(check-sat)
(pop)
(pop)
(push)
(assert (le x3 java.lang.StringBuilder))
(check-sat)
(pop)
(push)
(assert (not (le x3 java.lang.StringBuilder)))
(check-sat)
(pop)
(push)
(assert (le x9 java.lang.StringBuffer))
(check-sat)
(pop)
(push)
(assert (not (le x9 java.lang.StringBuffer)))
(check-sat)
(push)
(assert (le x12 weka.core.Instances))
(check-sat)
(pop)
(push)
(assert (not (le x12 weka.core.Instances)))
(check-sat)
(pop)
(pop)
(push)
(assert (le x9 weka.core.AttributeLocator))
(check-sat)
(pop)
(push)
(assert (not (le x9 weka.core.AttributeLocator)))
(check-sat)
(push)
(assert (le x6 weka.core.Capabilities_currencysign_Capability))
(check-sat)
(push)
(assert (le x12 java.util.Vector))
(check-sat)
(pop)
(push)
(assert (not (le x12 java.util.Vector)))
(check-sat)
(pop)
(pop)
(push)
(assert (not (le x6 weka.core.Capabilities_currencysign_Capability)))
(check-sat)
(pop)
(pop)
(pop)
(push)
(assert (not (le x5 java.lang.Boolean)))
(check-sat)
(pop)
(push)
(assert (le x5 weka.core.converters.ConverterUtils_currencysign_DataSource))
(check-sat)
(push)
(assert (le x4 weka.core.Instance))
(check-sat)
(push)
(assert (le x1 weka.core.Instances))
(check-sat)
(pop)
(push)
(assert (not (le x1 weka.core.Instances)))
(check-sat)
(pop)
(push)
(assert (le x1 weka.core.Instance))
(check-sat)
(pop)
(push)
(assert (not (le x1 weka.core.Instance)))
(check-sat)
(pop)
(pop)
(push)
(assert (not (le x4 weka.core.Instance)))
(check-sat)
(pop)
(pop)
(push)
(assert (not (le x5 weka.core.converters.ConverterUtils_currencysign_DataSource)))
(check-sat)
(push)
(assert (le x15 weka.core.Instances))
(check-sat)
(pop)
(push)
(assert (not (le x15 weka.core.Instances)))
(check-sat)
(push)
(assert (le x4 weka.classifiers.trees.j48.C45PruneableClassifierTree))
(check-sat)
(push)
(assert (le x3 java.lang.String))
(check-sat)
(pop)
(push)
(assert (not (le x3 java.lang.String)))
(check-sat)
(pop)
(pop)
(push)
(assert (not (le x4 weka.classifiers.trees.j48.C45PruneableClassifierTree)))
(check-sat)
(push)
(assert (le x3 java.util.Vector))
(check-sat)
(pop)
(push)
(assert (not (le x3 java.util.Vector)))
(check-sat)
(pop)
(push)
(assert (le x8 java.lang.StringBuffer))
(check-sat)
(pop)
(push)
(assert (not (le x8 java.lang.StringBuffer)))
(check-sat)
(pop)
(pop)
(push)
(assert (le x8 java.util.Vector))
(check-sat)
(pop)
(push)
(assert (not (le x8 java.util.Vector)))
(check-sat)
(pop)
(push)
(assert (le x2 weka.core.Queue))
(check-sat)
(pop)
(push)
(assert (not (le x2 weka.core.Queue)))
(check-sat)
(push)
(assert (le x4 weka.core.Instance))
(check-sat)
(pop)
(push)
(assert (not (le x4 weka.core.Instance)))
(check-sat)
(pop)
(pop)
(push)
(assert (le x13 weka.core.AttributeLocator))
(check-sat)
(pop)
(push)
(assert (not (le x13 weka.core.AttributeLocator)))
(check-sat)
(pop)
(push)
(assert (le x0 weka.core.Instances))
(check-sat)
(pop)
(push)
(assert (not (le x0 weka.core.Instances)))
(check-sat)
(pop)
(push)
(assert (le x3 weka.core.Capabilities_currencysign_Capability))
(check-sat)
(pop)
(push)
(assert (not (le x3 weka.core.Capabilities_currencysign_Capability)))
(check-sat)
(push)
(assert (le x15 weka.core.Instances))
(check-sat)
(pop)
(push)
(assert (not (le x15 weka.core.Instances)))
(check-sat)
(pop)
(pop)
(pop)
(push)
(assert (le x13 weka.core.Instance))
(check-sat)
(pop)
(push)
(assert (not (le x13 weka.core.Instance)))
(check-sat)
(push)
(assert (le x14 java.lang.Double))
(check-sat)
(pop)
(push)
(assert (not (le x14 java.lang.Double)))
(check-sat)
(pop)
(pop)
(pop)
(pop)
(push)
(assert (not (le x11 weka.core.Instance)))
(check-sat)
(push)
(assert (le x12 java.lang.String))
(check-sat)
(push)
(assert (le x9 java.lang.String))
(check-sat)
(pop)
(push)
(assert (not (le x9 java.lang.String)))
(check-sat)
(push)
(assert (le x7 java.util.Vector))
(check-sat)
(pop)
(push)
(assert (not (le x7 java.util.Vector)))
(check-sat)
(pop)
(pop)
(pop)
(push)
(assert (not (le x12 java.lang.String)))
(check-sat)
(push)
(assert (le x15 weka.core.Instances))
(check-sat)
(pop)
(push)
(assert (not (le x15 weka.core.Instances)))
(check-sat)
(pop)
(pop)
(push)
(assert (le x6 java.lang.StringBuffer))
(check-sat)
(pop)
(push)
(assert (not (le x6 java.lang.StringBuffer)))
(check-sat)
(push)
(assert (le x7 java.lang.String))
(check-sat)
(pop)
(push)
(assert (not (le x7 java.lang.String)))
(check-sat)
(pop)
(push)
(assert (le x0 weka.core.Instances))
(check-sat)
(pop)
(push)
(assert (not (le x0 weka.core.Instances)))
(check-sat)
(pop)
(pop)
(push)
(assert (le x3 weka.core.Instances))
(check-sat)
(push)
(assert (le x15 weka.core.Instance))
(check-sat)
(pop)
(push)
(assert (not (le x15 weka.core.Instance)))
(check-sat)
(pop)
(push)
(assert (le x13 java.util.HashSet))
(check-sat)
(push)
(assert (le x2 weka.core.Instances))
(check-sat)
(pop)
(push)
(assert (not (le x2 weka.core.Instances)))
(check-sat)
(pop)
(pop)
(push)
(assert (not (le x13 java.util.HashSet)))
(check-sat)
(push)
(assert (le x8 java.util.Vector))
(check-sat)
(pop)
(push)
(assert (not (le x8 java.util.Vector)))
(check-sat)
(pop)
(pop)
(push)
(assert (le x13 java.lang.String))
(check-sat)
(pop)
(push)
(assert (not (le x13 java.lang.String)))
(check-sat)
(push)
(assert (le x10 java.io.ObjectInputStream))
(check-sat)
(pop)
(push)
(assert (not (le x10 java.io.ObjectInputStream)))
(check-sat)
(pop)
(pop)
(push)
(assert (le x3 weka.core.Instances))
(check-sat)
(pop)
(push)
(assert (not (le x3 weka.core.Instances)))
(check-sat)
(pop)
(push)
(assert (le x9 weka.core.Instance))
(check-sat)
(pop)
(push)
(assert (not (le x9 weka.core.Instance)))
(check-sat)
(pop)
(pop)
(push)
(assert (not (le x3 weka.core.Instances)))
(check-sat)
(push)
(assert (le x2 java.lang.String))
(check-sat)
(pop)
(push)
(assert (not (le x2 java.lang.String)))
(check-sat)
(pop)
(push)
(assert (le x13 weka.core.Instances))
(check-sat)
(push)
(assert (le x1 java.lang.Boolean))
(check-sat)
(pop)
(push)
(assert (not (le x1 java.lang.Boolean)))
(check-sat)
(pop)
(pop)
(push)
(assert (not (le x13 weka.core.Instances)))
(check-sat)
(pop)
(push)
(assert (le x3 weka.core.Instances))
(check-sat)
(pop)
(push)
(assert (not (le x3 weka.core.Instances)))
(check-sat)
(pop)
(pop)
(push)
(assert (le x11 weka.core.Instance))
(check-sat)
(pop)
(push)
(assert (not (le x11 weka.core.Instance)))
(check-sat)
(push)
(assert (le x4 java.lang.Boolean))
(check-sat)
(pop)
(push)
(assert (not (le x4 java.lang.Boolean)))
(check-sat)
(pop)
(push)
(assert (le x13 weka.classifiers.trees.m5.Impurity))
(check-sat)
(push)
(assert (le x14 weka.core.Instance))
(check-sat)
(pop)
(push)
(assert (not (le x14 weka.core.Instance)))
(check-sat)
(pop)
(push)
(assert (le x5 weka.core.Instances))
(check-sat)
(pop)
(push)
(assert (not (le x5 weka.core.Instances)))
(check-sat)
(pop)
(push)
(assert (le x11 weka.core.Instance))
(check-sat)
(pop)
(push)
(assert (not (le x11 weka.core.Instance)))
(check-sat)
(pop)
(push)
(assert (le x3 weka.core.Instance))
(check-sat)
(pop)
(push)
(assert (not (le x3 weka.core.Instance)))
(check-sat)
(push)
(assert (le x10 weka.core.Instance))
(check-sat)
(pop)
(push)
(assert (not (le x10 weka.core.Instance)))
(check-sat)
(pop)
(pop)
(push)
(assert (le x15 weka.core.Instances))
(check-sat)
(pop)
(push)
(assert (not (le x15 weka.core.Instances)))
(check-sat)
(pop)
(pop)
(push)
(assert (not (le x13 weka.classifiers.trees.m5.Impurity)))
(check-sat)
(pop)
(push)
(assert (le x7 weka.core.Instance))
(check-sat)
(push)
(assert (le x14 weka.core.Queue))
(check-sat)
(push)
(assert (le x9 java.lang.Object))
(check-sat)
(pop)
(push)
(assert (not (le x9 java.lang.Object)))
(check-sat)
(pop)
(pop)
(push)
(assert (not (le x14 weka.core.Queue)))
(check-sat)
(pop)
(pop)
(push)
(assert (not (le x7 weka.core.Instance)))
(check-sat)
(pop)
(push)
(assert (le x15 java.lang.String))
(check-sat)
(push)
(assert (le x8 weka.core.Instance))
(check-sat)
(pop)
(push)
(assert (not (le x8 weka.core.Instance)))
(check-sat)
(pop)
(pop)
(push)
(assert (not (le x15 java.lang.String)))
(check-sat)
(push)
(assert (le x3 java.lang.StringBuilder))
(check-sat)
(pop)
(push)
(assert (not (le x3 java.lang.StringBuilder)))
(check-sat)
(pop)
(pop)
(push)
(assert (le x4 weka.core.Instances))
(check-sat)
(pop)
(push)
(assert (not (le x4 weka.core.Instances)))
(check-sat)
(push)
(assert (le x2 weka.core.Instances))
(check-sat)
(pop)
(push)
(assert (not (le x2 weka.core.Instances)))
(check-sat)
(pop)
(push)
(assert (le x11 weka.core.Instance))
(check-sat)
(pop)
(push)
(assert (not (le x11 weka.core.Instance)))
(check-sat)
(pop)
(pop)
(pop)
(push)
(assert (le x11 weka.core.Instance))
(check-sat)
(pop)
(push)
(assert (not (le x11 weka.core.Instance)))
(check-sat)
(push)
(assert (le x9 java.util.Vector))
(check-sat)
(pop)
(push)
(assert (not (le x9 java.util.Vector)))
(check-sat)
(push)
(assert (le x3 weka.classifiers.Evaluation))
(check-sat)
(pop)
(push)
(assert (not (le x3 weka.classifiers.Evaluation)))
(check-sat)
(pop)
(push)
(assert (le x12 weka.core.Instances))
(check-sat)
(pop)
(push)
(assert (not (le x12 weka.core.Instances)))
(check-sat)
(pop)
(push)
(assert (le x3 java.lang.String))
(check-sat)
(pop)
(push)
(assert (not (le x3 java.lang.String)))
(check-sat)
(pop)
(pop)
(push)
(assert (le x11 weka.core.Instance))
(check-sat)
(pop)
(push)
(assert (not (le x11 weka.core.Instance)))
(check-sat)
(push)
(assert (le x7 weka.core.FastVector))
(check-sat)
(pop)
(push)
(assert (not (le x7 weka.core.FastVector)))
(check-sat)
(pop)
(pop)
(pop)
(push)
(assert (le x9 java.lang.Double))
(check-sat)
(pop)
(push)
(assert (not (le x9 java.lang.Double)))
(check-sat)
(pop)
(pop)
